p cnf 50 75
1 48 0
1 25 0
1 44 0
2 38 0
2 31 0
2 41 0
3 14 0
3 4 0
3 25 0
4 49 0
4 41 0
5 36 0
5 49 0
5 32 0
6 48 0
6 14 0
6 17 0
7 14 0
7 18 0
7 47 0
8 23 0
8 19 0
8 39 0
9 38 0
9 24 0
9 26 0
10 34 0
10 41 0
10 27 0
11 27 0
11 34 0
11 18 0
12 33 0
12 13 0
12 15 0
13 29 0
13 50 0
15 38 0
15 50 0
16 21 0
16 20 0
16 28 0
17 34 0
17 24 0
18 43 0
19 26 0
19 36 0
20 29 0
20 40 0
21 48 0
21 40 0
22 42 0
22 30 0
22 27 0
23 49 0
23 39 0
24 35 0
25 35 0
26 40 0
28 35 0
28 42 0
29 32 0
30 39 0
30 31 0
31 50 0
32 42 0
33 37 0
33 44 0
36 43 0
37 46 0
37 45 0
43 47 0
44 45 0
45 46 0
46 47 0
g -30